Problem:    
Rows:       256
Columns:    89 (72 integer, 72 binary)
Non-zeros:  960
Status:     INTEGER OPTIMAL
Objective:  value = 3.636089 (MINimum)

   No.   Row name        Activity     Lower bound   Upper bound
------ ------------    ------------- ------------- -------------
     1 r.5                   1003.64             0               
     2 r.6                  -998.345      -999.619               
     3 r.7                   3.63609             0               
     4 r.8                     2.678      -989.086               
     5 r.9                   1003.64             0               
     6 r.10                 -997.938      -999.593               
     7 r.11                  3.63609             0               
     8 r.12                  2.06236      -989.094               
     9 r.13                  1003.64             0               
    10 r.14                 -998.726      -999.421               
    11 r.15                  3.63609             0               
    12 r.16                  2.06236      -985.428               
    13 r.17                  1003.64             0               
    14 r.18                 -999.305      -999.659               
    15 r.19                  3.63609             0               
    16 r.20                 0.695281      -989.104               
    17 r.21                  1003.64             0               
    18 r.22                 -999.645      -999.693               
    19 r.23                  3.63609             0               
    20 r.24                  2.06236      -991.489               
    21 r.25                  1003.64             0               
    22 r.26                 -999.952      -999.952               
    23 r.27                  3.63609             0               
    24 r.28                 0.047801      -998.664               
    25 r.29                  1003.64             0               
    26 r.30                 -996.364      -999.042               
    27 r.31                  3.63609             0               
    28 r.32                  3.63609      -985.661               
    29 r.33                  1003.64             0               
    30 r.34                 -997.322      -999.384               
    31 r.35                  3.63609             0               
    32 r.36                  3.63609      -993.954               
    33 r.37                        1             1             = 
    34 r.38                        1             1             = 
    35 r.39                        1             1             = 
    36 r.40                        1             1             = 
    37 r.41                        1             1             = 
    38 r.42                        1             1             = 
    39 r.43                        1             1             = 
    40 r.44                        1             1             = 
    41 r.45                        2             2               
    42 r.46                       -2         -1001               
    43 r.47                 -999.593      -999.593               
    44 r.48                     1000             2               
    45 r.49                    -1000         -1001               
    46 r.50                  1999.38      -989.094               
    47 r.51                        2             2               
    48 r.52                       -2         -1001               
    49 r.53                -0.381153      -999.421               
    50 r.54                     1000             2               
    51 r.55                    -1000         -1001               
    52 r.56                  1999.38      -985.428               
    53 r.57                        2             2               
    54 r.58                       -2         -1001               
    55 r.59                -0.959853      -999.659               
    56 r.60                     1000             2               
    57 r.61                    -1000         -1001               
    58 r.62                  1998.02      -989.104               
    59 r.63                        2             2               
    60 r.64                       -2         -1001               
    61 r.65                 -1.30058      -999.693               
    62 r.66                     1000             2               
    63 r.67                    -1000         -1001               
    64 r.68                  1999.38      -991.489               
    65 r.69                 -998.393      -999.619               
    66 r.70                   2.6302      -989.086               
    67 r.71                 -998.393      -999.619               
    68 r.72                   2.6302      -989.086               
    69 r.73                 -998.019      -999.042               
    70 r.74                  1.98095      -985.661               
    71 r.75                 -999.042      -999.042               
    72 r.76                 0.958089      -985.661               
    73 r.77                        2             2               
    74 r.78                       -2         -1001               
    75 r.79                 -998.977      -999.384               
    76 r.80                     1000             2               
    77 r.81                    -1000         -1001               
    78 r.82                  2000.96      -993.954               
    79 r.83                        2             2               
    80 r.84                       -2         -1001               
    81 r.85                  999.593      0.381153               
    82 r.86                     1000             2               
    83 r.87                    -1000         -1001               
    84 r.88                  2000.62       10.9136               
    85 r.89                        2             2               
    86 r.90                       -2         -1001               
    87 r.91                -0.788375      -999.421               
    88 r.92                     1000             2               
    89 r.93                    -1000         -1001               
    90 r.94                     2000      -985.428               
    91 r.95                        2             2               
    92 r.96                       -2         -1001               
    93 r.97                 -1.36708      -999.659               
    94 r.98                     1000             2               
    95 r.99                    -1000         -1001               
    96 r.100                 1998.63      -989.104               
    97 r.101                       2             2               
    98 r.102                      -2         -1001               
    99 r.103                 -1.7078      -999.693               
   100 r.104                    1000             2               
   101 r.105                   -1000         -1001               
   102 r.106                    2000      -991.489               
   103 r.107                -997.985      -999.593               
   104 r.108                 2.01456      -989.094               
   105 r.109                -997.985      -999.593               
   106 r.110                 2.01456      -989.094               
   107 r.111                       2             2               
   108 r.112                      -2         -1001               
   109 r.113                -998.426      -999.042               
   110 r.114                    1000             2               
   111 r.115                   -1000         -1001               
   112 r.116                 2001.57      -985.661               
   113 r.117                -999.384      -999.384               
   114 r.118                 1.57373      -993.954               
   115 r.119                -999.384      -999.384               
   116 r.120                 1.57373      -993.954               
   117 r.121                       2             2               
   118 r.122                      -2         -1001               
   119 r.123                0.381153      0.381153               
   120 r.124                    1000             2               
   121 r.125                   -1000         -1001               
   122 r.126                 2000.62       10.9136               
   123 r.127                       2             2               
   124 r.128                      -2         -1001               
   125 r.129                0.788375      0.407222               
   126 r.130                    1000             2               
   127 r.131                   -1000         -1001               
   128 r.132                    2000       10.9058               
   129 r.133                -999.421      -999.421               
   130 r.134                 1.36708      -985.428               
   131 r.135                -999.421      -999.421               
   132 r.136                 1.36708      -985.428               
   133 r.137                       2             2               
   134 r.138                      -2         -1001               
   135 r.139               -0.919424      -999.693               
   136 r.140                    1000             2               
   137 r.141                   -1000         -1001               
   138 r.142                    2000      -991.489               
   139 r.143                -998.774      -999.421               
   140 r.144                 2.01456      -985.428               
   141 r.145                -998.774      -999.421               
   142 r.146                 2.01456      -985.428               
   143 r.147                       2             2               
   144 r.148                      -2         -1001               
   145 r.149                -997.638      -999.042               
   146 r.150                    1000             2               
   147 r.151                   -1000         -1001               
   148 r.152                 2001.57      -985.661               
   149 r.153                -998.596      -999.384               
   150 r.154                 2.36211      -993.954               
   151 r.155                -999.384      -999.384               
   152 r.156                 1.57373      -993.954               
   153 r.157                       2             2               
   154 r.158                      -2         -1001               
   155 r.159                0.959853      0.381153               
   156 r.160                    1000             2               
   157 r.161                   -1000         -1001               
   158 r.162                 2001.98       10.9136               
   159 r.163                       2             2               
   160 r.164                      -2         -1001               
   161 r.165                 1.36708      0.407222               
   162 r.166                    1000             2               
   163 r.167                   -1000         -1001               
   164 r.168                 2001.37       10.9058               
   165 r.169                       2             2               
   166 r.170                      -2         -1001               
   167 r.171               -0.340724      -999.693               
   168 r.172                    1000             2               
   169 r.173                   -1000         -1001               
   170 r.174                 2001.37      -991.489               
   171 r.175                -999.353      -999.659               
   172 r.176                 0.64748      -989.104               
   173 r.177                -999.353      -999.659               
   174 r.178                 0.64748      -989.104               
   175 r.179                       2             2               
   176 r.180                      -2         -1001               
   177 r.181                -997.059      -999.042               
   178 r.182                    1000             2               
   179 r.183                   -1000         -1001               
   180 r.184                 2002.94      -985.661               
   181 r.185                -998.017      -999.384               
   182 r.186                 2.94081      -993.954               
   183 r.187                -998.017      -999.384               
   184 r.188                 2.94081      -993.954               
   185 r.189                       2             2               
   186 r.190                      -2         -1001               
   187 r.191                 1.30058      0.381153               
   188 r.192                    1000             2               
   189 r.193                   -1000         -1001               
   190 r.194                 2000.62       10.9136               
   191 r.195                       2             2               
   192 r.196                      -2         -1001               
   193 r.197                  1.7078      0.407222               
   194 r.198                    1000             2               
   195 r.199                   -1000         -1001               
   196 r.200                    2000       10.9058               
   197 r.201                       2             2               
   198 r.202                      -2         -1001               
   199 r.203                0.919424        0.5787               
   200 r.204                    1000             2               
   201 r.205                   -1000         -1001               
   202 r.206                    2000       14.5725               
   203 r.207                       2             2               
   204 r.208                      -2         -1001               
   205 r.209                0.340724      0.340724               
   206 r.210                    1000             2               
   207 r.211                   -1000         -1001               
   208 r.212                 1998.63        10.896               
   209 r.213                -999.693      -999.693               
   210 r.214                 2.01456      -991.489               
   211 r.215                -999.693      -999.693               
   212 r.216                 2.01456      -991.489               
   213 r.217                -996.718      -999.042               
   214 r.218                 3.28153      -985.661               
   215 r.219                -998.426      -999.042               
   216 r.220                 1.57373      -985.661               
   217 r.221                -997.677      -999.384               
   218 r.222                 3.28153      -993.954               
   219 r.223                -999.384      -999.384               
   220 r.224                 1.57373      -993.954               
   221 r.225                       2             2               
   222 r.226                      -2         -1001               
   223 r.227                 998.426      0.407222               
   224 r.228                    1000             2               
   225 r.229                   -1000         -1001               
   226 r.230                 1998.43       10.9058               
   227 r.231                       2             2               
   228 r.232                      -2         -1001               
   229 r.233                 997.638        0.5787               
   230 r.234                    1000             2               
   231 r.235                   -1000         -1001               
   232 r.236                 1998.43       14.5725               
   233 r.237                       2             2               
   234 r.238                      -2         -1001               
   235 r.239                 997.059      0.340724               
   236 r.240                    1000             2               
   237 r.241                   -1000         -1001               
   238 r.242                 1997.06        10.896               
   239 r.243                       2             2               
   240 r.244                      -2         -1001               
   241 r.245               -0.958089      -999.384               
   242 r.246                    1000             2               
   243 r.247                   -1000         -1001               
   244 r.248                    2000      -993.954               
   245 r.249                       2             2               
   246 r.250                      -2         -1001               
   247 r.251                 998.977      0.381153               
   248 r.252                    1000             2               
   249 r.253                   -1000         -1001               
   250 r.254                 1999.04       10.9136               
   251 r.255                       2             2               
   252 r.256                      -2         -1001               
   253 r.257                0.958089      0.958089               
   254 r.258                    1000             2               
   255 r.259                   -1000         -1001               
   256 r.260                    2000       14.3392               

   No. Column name       Activity     Lower bound   Upper bound
------ ------------    ------------- ------------- -------------
     1 tt                    3.63609             0               
     2 s_1_1        *              1             0             1 
     3 t_1_1                 1.98095             0               
     4 s_1_7        *              1             0             1 
     5 s_2_1        *              0             0             1 
     6 t_2_1                0.958089             0               
     7 s_2_7        *              0             0             1 
     8 s_1_2        *              1             0             1 
     9 t_1_2                 1.57373             0               
    10 s_1_8        *              1             0             1 
    11 s_2_2        *              0             0             1 
    12 t_2_2                 1.57373             0               
    13 s_2_8        *              0             0             1 
    14 s_1_3        *              1             0             1 
    15 t_1_3                 2.36211             0               
    16 s_2_3        *              0             0             1 
    17 t_2_3                 1.57373             0               
    18 s_1_4        *              1             0             1 
    19 t_1_4                 2.94081             0               
    20 s_2_4        *              0             0             1 
    21 t_2_4                 2.94081             0               
    22 s_1_5        *              1             0             1 
    23 t_1_5                 3.28153             0               
    24 s_2_5        *              0             0             1 
    25 t_2_5                 1.57373             0               
    26 s_1_6        *              1             0             1 
    27 t_1_6                 3.58829             0               
    28 s_2_6        *              0             0             1 
    29 t_2_6                 3.58829             0               
    30 t_1_7                       0             0               
    31 t_2_7                       0             0               
    32 t_1_8                0.958089             0               
    33 t_2_8                       0             0               
    34 r_1_1_2      *              0             0             1 
    35 u_1_1_2      *              1             0             1 
    36 r_2_1_2      *              1             0             1 
    37 u_2_1_2      *              0             0             1 
    38 r_1_1_3      *              0             0             1 
    39 u_1_1_3      *              0             0             1 
    40 r_2_1_3      *              1             0             1 
    41 u_2_1_3      *              0             0             1 
    42 r_1_1_4      *              0             0             1 
    43 u_1_1_4      *              0             0             1 
    44 r_2_1_4      *              1             0             1 
    45 u_2_1_4      *              0             0             1 
    46 r_1_1_5      *              0             0             1 
    47 u_1_1_5      *              0             0             1 
    48 r_2_1_5      *              1             0             1 
    49 u_2_1_5      *              0             0             1 
    50 r_1_1_8      *              0             0             1 
    51 u_1_1_8      *              1             0             1 
    52 r_2_1_8      *              1             0             1 
    53 u_2_1_8      *              0             0             1 
    54 r_1_2_3      *              0             0             1 
    55 u_1_2_3      *              0             0             1 
    56 r_2_2_3      *              1             0             1 
    57 u_2_2_3      *              0             0             1 
    58 r_1_2_4      *              0             0             1 
    59 u_1_2_4      *              0             0             1 
    60 r_2_2_4      *              1             0             1 
    61 u_2_2_4      *              0             0             1 
    62 r_1_2_5      *              0             0             1 
    63 u_1_2_5      *              0             0             1 
    64 r_2_2_5      *              1             0             1 
    65 u_2_2_5      *              0             0             1 
    66 r_1_2_7      *              0             0             1 
    67 u_1_2_7      *              1             0             1 
    68 r_2_2_7      *              1             0             1 
    69 u_2_2_7      *              0             0             1 
    70 r_1_3_5      *              0             0             1 
    71 u_1_3_5      *              0             0             1 
    72 r_2_3_5      *              1             0             1 
    73 u_2_3_5      *              0             0             1 
    74 r_1_3_7      *              0             0             1 
    75 u_1_3_7      *              1             0             1 
    76 r_2_3_7      *              1             0             1 
    77 u_2_3_7      *              0             0             1 
    78 r_1_4_5      *              0             0             1 
    79 u_1_4_5      *              0             0             1 
    80 r_2_4_5      *              1             0             1 
    81 u_2_4_5      *              0             0             1 
    82 r_1_4_7      *              0             0             1 
    83 u_1_4_7      *              1             0             1 
    84 r_2_4_7      *              1             0             1 
    85 u_2_4_7      *              0             0             1 
    86 r_1_7_8      *              0             0             1 
    87 u_1_7_8      *              0             0             1 
    88 r_2_7_8      *              1             0             1 
    89 u_2_7_8      *              0             0             1 

Integer feasibility conditions:

KKT.PE: max.abs.err = 1.14e-13 on row 10
        max.rel.err = 8.55e-17 on row 135
        High quality

KKT.PB: max.abs.err = 2.22e-16 on row 205
        max.rel.err = 1.66e-16 on row 205
        High quality

End of output
